50, 645
13, 18
40, 45
46, 51
22, 27
19, 24
3, 8
40, 45
40, 45
29, 34
16, 21
47, 52
39, 44
26, 31
6, 11
47, 52
26, 31
6, 11
47, 52
34, 39
47, 52
13, 18
10, 15
27, 32
20, 25
3, 8
4, 9
17, 22
50, 55
12, 17
20, 25
28, 33
23, 28
13, 18
10, 15
44, 49
15, 20
26, 31
42, 47
42, 47
31, 36
2, 7
41, 46
50, 55
8, 13
16, 21
17, 22
32, 37
4, 9
46, 51
31, 36
